c FILE /home/rafael/Documents/HappySet/MIHS/inputs/happygen/output/graph_scale_free_k7_p0.5_v100_20241127_083905.txt
c SOURCE This is a scale-free graph formed for the happy graph colouring problem.
c DESCRIPTION It was generated using the problem generator of Rhyd Lewis
c
c GRAPH STATS
c Seed                             = 93433375
c Number of Nodes                  = 100
c Number of colours k              = 7
c Number of pre-assignments        = 50
c Number of links per new node     = 5
c Density                          = 0.0979798
c 
c The degrees of nodes 1 to 100, respectively, are as follows 
c [42, 33, 31, 30, 28, 27, 24, 24, 21, 21, 20, 18, 17, 15, 15, 14, 13, 12, 12, 11, 11, 11, 11, 10, 10, 10, 
c  10, 9, 9, 9, 9, 9, 9, 9, 9, 9, 8, 8, 8, 8, 8, 8, 8, 8, 7, 7, 7, 7, 7, 7, 7, 
c  7, 7, 7, 7, 7, 7, 7, 6, 6, 6, 6, 6, 6, 6, 6, 6, 6, 6, 6, 6, 6, 6, 6, 5, 5, 
c  5, 5, 5, 5, 5, 5, 5, 5, 5, 5, 5, 5, 5, 5, 5, 5, 5, 5, 5, 5, 5, 5, 5, 5] 
c  
p edge 100 485 7
e 1 2
e 1 3
e 1 4
e 1 5
e 1 6
e 1 7
e 1 8
e 1 9
e 1 11
e 1 12
e 1 14
e 1 16
e 1 18
e 1 20
e 1 24
e 1 25
e 1 28
e 1 29
e 1 30
e 1 32
e 1 36
e 1 40
e 1 41
e 1 42
e 1 45
e 1 47
e 1 48
e 1 50
e 1 51
e 1 52
e 1 53
e 1 56
e 1 59
e 1 61
e 1 63
e 1 67
e 1 72
e 1 74
e 1 81
e 1 83
e 1 87
e 1 95
e 2 3
e 2 4
e 2 5
e 2 6
e 2 8
e 2 9
e 2 10
e 2 13
e 2 15
e 2 16
e 2 19
e 2 21
e 2 25
e 2 26
e 2 27
e 2 28
e 2 32
e 2 35
e 2 40
e 2 51
e 2 58
e 2 59
e 2 60
e 2 71
e 2 75
e 2 78
e 2 81
e 2 84
e 2 85
e 2 91
e 2 94
e 2 100
e 3 4
e 3 5
e 3 6
e 3 7
e 3 8
e 3 9
e 3 12
e 3 13
e 3 14
e 3 15
e 3 16
e 3 19
e 3 20
e 3 21
e 3 24
e 3 25
e 3 29
e 3 30
e 3 31
e 3 36
e 3 46
e 3 59
e 3 60
e 3 62
e 3 69
e 3 71
e 3 75
e 3 86
e 3 94
e 4 5
e 4 6
e 4 7
e 4 11
e 4 12
e 4 14
e 4 17
e 4 18
e 4 19
e 4 20
e 4 21
e 4 22
e 4 24
e 4 26
e 4 34
e 4 37
e 4 39
e 4 43
e 4 45
e 4 46
e 4 47
e 4 48
e 4 49
e 4 56
e 4 82
e 4 90
e 4 92
e 5 6
e 5 7
e 5 10
e 5 13
e 5 14
e 5 17
e 5 22
e 5 23
e 5 30
e 5 31
e 5 37
e 5 42
e 5 44
e 5 48
e 5 50
e 5 58
e 5 60
e 5 68
e 5 69
e 5 76
e 5 78
e 5 84
e 5 86
e 5 99
e 6 7
e 6 8
e 6 11
e 6 12
e 6 13
e 6 14
e 6 18
e 6 19
e 6 22
e 6 23
e 6 24
e 6 26
e 6 28
e 6 30
e 6 31
e 6 32
e 6 34
e 6 38
e 6 39
e 6 59
e 6 62
e 6 73
e 7 9
e 7 12
e 7 15
e 7 16
e 7 24
e 7 27
e 7 35
e 7 38
e 7 39
e 7 45
e 7 48
e 7 54
e 7 61
e 7 63
e 7 71
e 7 80
e 7 81
e 7 88
e 7 96
e 8 10
e 8 11
e 8 13
e 8 19
e 8 20
e 8 21
e 8 29
e 8 35
e 8 42
e 8 50
e 8 54
e 8 55
e 8 60
e 8 61
e 8 74
e 8 77
e 8 88
e 8 93
e 8 94
e 8 97
e 9 11
e 9 20
e 9 26
e 9 27
e 9 30
e 9 34
e 9 36
e 9 37
e 9 43
e 9 49
e 9 53
e 9 60
e 9 78
e 9 86
e 9 94
e 9 96
e 9 98
e 10 18
e 10 25
e 10 28
e 10 29
e 10 31
e 10 45
e 10 50
e 10 54
e 10 56
e 10 61
e 10 62
e 10 73
e 10 75
e 10 76
e 10 77
e 10 81
e 10 89
e 10 90
e 11 14
e 11 15
e 11 21
e 11 28
e 11 33
e 11 42
e 11 51
e 11 64
e 11 65
e 11 72
e 11 76
e 11 77
e 11 82
e 11 96
e 11 98
e 12 15
e 12 18
e 12 29
e 12 36
e 12 37
e 12 38
e 12 40
e 12 46
e 12 47
e 12 59
e 12 68
e 12 72
e 12 97
e 13 14
e 13 18
e 13 22
e 13 33
e 13 38
e 13 39
e 13 56
e 13 67
e 13 69
e 13 84
e 13 85
e 13 95
e 14 28
e 14 32
e 14 33
e 14 35
e 14 65
e 14 72
e 14 78
e 14 96
e 15 23
e 15 34
e 15 44
e 15 54
e 15 55
e 15 57
e 15 67
e 15 85
e 15 87
e 15 89
e 16 32
e 16 44
e 16 53
e 16 59
e 16 64
e 16 66
e 16 68
e 16 70
e 16 92
e 16 95
e 17 27
e 17 31
e 17 34
e 17 41
e 17 51
e 17 55
e 17 57
e 17 62
e 17 66
e 17 84
e 17 100
e 18 25
e 18 56
e 18 65
e 18 67
e 18 83
e 18 91
e 19 23
e 19 40
e 19 41
e 19 58
e 19 70
e 19 82
e 19 100
e 20 26
e 20 33
e 20 66
e 20 73
e 20 77
e 20 98
e 21 40
e 21 43
e 21 49
e 21 63
e 21 71
e 21 85
e 22 23
e 22 24
e 22 43
e 22 57
e 22 75
e 22 82
e 22 99
e 23 44
e 23 64
e 23 74
e 23 83
e 23 85
e 23 99
e 24 37
e 24 46
e 24 52
e 24 91
e 25 27
e 25 65
e 25 66
e 25 88
e 25 97
e 26 27
e 26 31
e 26 38
e 26 65
e 26 91
e 27 57
e 27 63
e 27 79
e 27 89
e 28 52
e 28 61
e 28 62
e 29 46
e 29 53
e 29 87
e 29 94
e 30 39
e 30 41
e 30 45
e 30 77
e 31 44
e 31 58
e 31 69
e 32 33
e 32 63
e 32 86
e 32 100
e 33 42
e 33 48
e 33 74
e 33 76
e 34 37
e 34 47
e 34 64
e 34 76
e 35 47
e 35 68
e 35 79
e 35 89
e 35 93
e 36 55
e 36 60
e 36 73
e 36 80
e 36 88
e 37 47
e 37 80
e 38 49
e 38 50
e 38 64
e 39 57
e 39 75
e 39 92
e 40 55
e 40 68
e 40 78
e 41 45
e 41 51
e 41 52
e 41 67
e 42 54
e 42 70
e 42 90
e 43 55
e 43 79
e 43 86
e 43 98
e 44 70
e 44 83
e 44 99
e 45 49
e 46 71
e 46 87
e 47 91
e 48 70
e 48 82
e 49 83
e 49 95
e 50 88
e 50 90
e 51 53
e 51 87
e 52 63
e 52 80
e 52 96
e 53 74
e 53 98
e 54 69
e 54 79
e 55 80
e 56 79
e 56 90
e 57 66
e 57 99
e 58 64
e 58 72
e 58 93
e 61 97
e 62 92
e 65 81
e 66 84
e 67 93
e 68 95
e 69 73
e 70 92
e 71 97
e 72 89
e 73 93
e 74 100
n 6 7
n 15 1
n 21 3
n 27 5
n 28 7
n 30 7
n 31 7
n 33 5
n 35 5
n 36 1
n 37 5
n 42 5
n 45 7
n 46 4
n 47 5
n 48 5
n 50 1
n 51 4
n 55 1
n 56 5
n 58 7
n 59 7
n 60 1
n 62 7
n 64 7
n 65 5
n 66 1
n 67 1
n 69 7
n 72 7
n 75 4
n 76 5
n 77 7
n 78 6
n 79 5
n 81 5
n 82 5
n 83 7
n 84 1
n 86 1
n 88 1
n 91 5
n 92 7
n 94 3
n 95 2
n 96 5
n 97 5
n 98 6
n 99 6
n 100 7
